p cnf 401 1648
-1 246 0
-2 247 0
-246 247 0
-246 -2 0
-3 248 0
-247 248 0
-247 -3 0
-4 249 0
-248 249 0
-248 -4 0
-249 -5 0
-1 36 0
-1 6 0
-2 37 0
-2 7 0
-3 38 0
-3 8 0
-4 39 0
-4 9 0
-5 40 0
-5 10 0
-6 250 0
-7 251 0
-250 251 0
-250 -7 0
-8 252 0
-251 252 0
-251 -8 0
-9 253 0
-252 253 0
-252 -9 0
-253 -10 0
-6 1 11 0
-6 1 41 0
-6 11 41 0
-7 2 12 0
-7 2 42 0
-7 12 42 0
-8 3 13 0
-8 3 43 0
-8 13 43 0
-9 4 14 0
-9 4 44 0
-9 14 44 0
-10 5 15 0
-10 5 45 0
-10 15 45 0
-6 -1 -11 -41 0
-7 -2 -12 -42 0
-8 -3 -13 -43 0
-9 -4 -14 -44 0
-10 -5 -15 -45 0
-11 254 0
-12 255 0
-254 255 0
-254 -12 0
-13 256 0
-255 256 0
-255 -13 0
-14 257 0
-256 257 0
-256 -14 0
-257 -15 0
-11 6 16 0
-11 6 46 0
-11 16 46 0
-12 7 17 0
-12 7 47 0
-12 17 47 0
-13 8 18 0
-13 8 48 0
-13 18 48 0
-14 9 19 0
-14 9 49 0
-14 19 49 0
-15 10 20 0
-15 10 50 0
-15 20 50 0
-11 -6 -16 -46 0
-12 -7 -17 -47 0
-13 -8 -18 -48 0
-14 -9 -19 -49 0
-15 -10 -20 -50 0
-16 258 0
-17 259 0
-258 259 0
-258 -17 0
-18 260 0
-259 260 0
-259 -18 0
-19 261 0
-260 261 0
-260 -19 0
-261 -20 0
-16 11 21 0
-16 11 51 0
-16 21 51 0
-17 12 22 0
-17 12 52 0
-17 22 52 0
-18 13 23 0
-18 13 53 0
-18 23 53 0
-19 14 24 0
-19 14 54 0
-19 24 54 0
-20 15 25 0
-20 15 55 0
-20 25 55 0
-16 -11 -21 -51 0
-17 -12 -22 -52 0
-18 -13 -23 -53 0
-19 -14 -24 -54 0
-20 -15 -25 -55 0
-21 262 0
-22 263 0
-262 263 0
-262 -22 0
-23 264 0
-263 264 0
-263 -23 0
-24 265 0
-264 265 0
-264 -24 0
-265 -25 0
-21 16 26 0
-21 16 56 0
-21 26 56 0
-22 17 27 0
-22 17 57 0
-22 27 57 0
-23 18 28 0
-23 18 58 0
-23 28 58 0
-24 19 29 0
-24 19 59 0
-24 29 59 0
-25 20 30 0
-25 20 60 0
-25 30 60 0
-21 -16 -26 -56 0
-22 -17 -27 -57 0
-23 -18 -28 -58 0
-24 -19 -29 -59 0
-25 -20 -30 -60 0
-26 266 0
-27 267 0
-266 267 0
-266 -27 0
-28 268 0
-267 268 0
-267 -28 0
-29 269 0
-268 269 0
-268 -29 0
-269 -30 0
-26 21 31 0
-26 21 61 0
-26 31 61 0
-27 22 32 0
-27 22 62 0
-27 32 62 0
-28 23 33 0
-28 23 63 0
-28 33 63 0
-29 24 34 0
-29 24 64 0
-29 34 64 0
-30 25 35 0
-30 25 65 0
-30 35 65 0
-26 -21 -31 -61 0
-27 -22 -32 -62 0
-28 -23 -33 -63 0
-29 -24 -34 -64 0
-30 -25 -35 -65 0
-31 270 0
-32 271 0
-270 271 0
-270 -32 0
-33 272 0
-271 272 0
-271 -33 0
-34 273 0
-272 273 0
-272 -34 0
-273 -35 0
-31 66 0
-31 26 0
-32 67 0
-32 27 0
-33 68 0
-33 28 0
-34 69 0
-34 29 0
-35 70 0
-35 30 0
-36 274 0
-37 275 0
-274 275 0
-274 -37 0
-38 276 0
-275 276 0
-275 -38 0
-39 277 0
-276 277 0
-276 -39 0
-277 -40 0
-36 71 41 0
-36 71 1 0
-36 41 1 0
-37 72 42 0
-37 72 2 0
-37 42 2 0
-38 73 43 0
-38 73 3 0
-38 43 3 0
-39 74 44 0
-39 74 4 0
-39 44 4 0
-40 75 45 0
-40 75 5 0
-40 45 5 0
-36 -71 -41 -1 0
-37 -72 -42 -2 0
-38 -73 -43 -3 0
-39 -74 -44 -4 0
-40 -75 -45 -5 0
-41 278 0
-42 279 0
-278 279 0
-278 -42 0
-43 280 0
-279 280 0
-279 -43 0
-44 281 0
-280 281 0
-280 -44 0
-281 -45 0
-41 76 46 6 0
-41 76 46 36 0
-41 76 6 36 0
-41 46 6 36 0
-42 77 47 7 0
-42 77 47 37 0
-42 77 7 37 0
-42 47 7 37 0
-43 78 48 8 0
-43 78 48 38 0
-43 78 8 38 0
-43 48 8 38 0
-44 79 49 9 0
-44 79 49 39 0
-44 79 9 39 0
-44 49 9 39 0
-45 80 50 10 0
-45 80 50 40 0
-45 80 10 40 0
-45 50 10 40 0
-41 -76 -46 -6 0
-41 -76 -46 -36 0
-41 -76 -6 -36 0
-41 -46 -6 -36 0
-42 -77 -47 -7 0
-42 -77 -47 -37 0
-42 -77 -7 -37 0
-42 -47 -7 -37 0
-43 -78 -48 -8 0
-43 -78 -48 -38 0
-43 -78 -8 -38 0
-43 -48 -8 -38 0
-44 -79 -49 -9 0
-44 -79 -49 -39 0
-44 -79 -9 -39 0
-44 -49 -9 -39 0
-45 -80 -50 -10 0
-45 -80 -50 -40 0
-45 -80 -10 -40 0
-45 -50 -10 -40 0
-46 282 0
-47 283 0
-282 283 0
-282 -47 0
-48 284 0
-283 284 0
-283 -48 0
-49 285 0
-284 285 0
-284 -49 0
-285 -50 0
-46 81 51 11 0
-46 81 51 41 0
-46 81 11 41 0
-46 51 11 41 0
-47 82 52 12 0
-47 82 52 42 0
-47 82 12 42 0
-47 52 12 42 0
-48 83 53 13 0
-48 83 53 43 0
-48 83 13 43 0
-48 53 13 43 0
-49 84 54 14 0
-49 84 54 44 0
-49 84 14 44 0
-49 54 14 44 0
-50 85 55 15 0
-50 85 55 45 0
-50 85 15 45 0
-50 55 15 45 0
-46 -81 -51 -11 0
-46 -81 -51 -41 0
-46 -81 -11 -41 0
-46 -51 -11 -41 0
-47 -82 -52 -12 0
-47 -82 -52 -42 0
-47 -82 -12 -42 0
-47 -52 -12 -42 0
-48 -83 -53 -13 0
-48 -83 -53 -43 0
-48 -83 -13 -43 0
-48 -53 -13 -43 0
-49 -84 -54 -14 0
-49 -84 -54 -44 0
-49 -84 -14 -44 0
-49 -54 -14 -44 0
-50 -85 -55 -15 0
-50 -85 -55 -45 0
-50 -85 -15 -45 0
-50 -55 -15 -45 0
-51 286 0
-52 287 0
-286 287 0
-286 -52 0
-53 288 0
-287 288 0
-287 -53 0
-54 289 0
-288 289 0
-288 -54 0
-289 -55 0
-51 86 56 16 0
-51 86 56 46 0
-51 86 16 46 0
-51 56 16 46 0
-52 87 57 17 0
-52 87 57 47 0
-52 87 17 47 0
-52 57 17 47 0
-53 88 58 18 0
-53 88 58 48 0
-53 88 18 48 0
-53 58 18 48 0
-54 89 59 19 0
-54 89 59 49 0
-54 89 19 49 0
-54 59 19 49 0
-55 90 60 20 0
-55 90 60 50 0
-55 90 20 50 0
-55 60 20 50 0
-51 -86 -56 -16 0
-51 -86 -56 -46 0
-51 -86 -16 -46 0
-51 -56 -16 -46 0
-52 -87 -57 -17 0
-52 -87 -57 -47 0
-52 -87 -17 -47 0
-52 -57 -17 -47 0
-53 -88 -58 -18 0
-53 -88 -58 -48 0
-53 -88 -18 -48 0
-53 -58 -18 -48 0
-54 -89 -59 -19 0
-54 -89 -59 -49 0
-54 -89 -19 -49 0
-54 -59 -19 -49 0
-55 -90 -60 -20 0
-55 -90 -60 -50 0
-55 -90 -20 -50 0
-55 -60 -20 -50 0
-56 290 0
-57 291 0
-290 291 0
-290 -57 0
-58 292 0
-291 292 0
-291 -58 0
-59 293 0
-292 293 0
-292 -59 0
-293 -60 0
-56 91 61 21 0
-56 91 61 51 0
-56 91 21 51 0
-56 61 21 51 0
-57 92 62 22 0
-57 92 62 52 0
-57 92 22 52 0
-57 62 22 52 0
-58 93 63 23 0
-58 93 63 53 0
-58 93 23 53 0
-58 63 23 53 0
-59 94 64 24 0
-59 94 64 54 0
-59 94 24 54 0
-59 64 24 54 0
-60 95 65 25 0
-60 95 65 55 0
-60 95 25 55 0
-60 65 25 55 0
-56 -91 -61 -21 0
-56 -91 -61 -51 0
-56 -91 -21 -51 0
-56 -61 -21 -51 0
-57 -92 -62 -22 0
-57 -92 -62 -52 0
-57 -92 -22 -52 0
-57 -62 -22 -52 0
-58 -93 -63 -23 0
-58 -93 -63 -53 0
-58 -93 -23 -53 0
-58 -63 -23 -53 0
-59 -94 -64 -24 0
-59 -94 -64 -54 0
-59 -94 -24 -54 0
-59 -64 -24 -54 0
-60 -95 -65 -25 0
-60 -95 -65 -55 0
-60 -95 -25 -55 0
-60 -65 -25 -55 0
-61 294 0
-62 295 0
-294 295 0
-294 -62 0
-63 296 0
-295 296 0
-295 -63 0
-64 297 0
-296 297 0
-296 -64 0
-297 -65 0
-61 96 66 26 0
-61 96 66 56 0
-61 96 26 56 0
-61 66 26 56 0
-62 97 67 27 0
-62 97 67 57 0
-62 97 27 57 0
-62 67 27 57 0
-63 98 68 28 0
-63 98 68 58 0
-63 98 28 58 0
-63 68 28 58 0
-64 99 69 29 0
-64 99 69 59 0
-64 99 29 59 0
-64 69 29 59 0
-65 100 70 30 0
-65 100 70 60 0
-65 100 30 60 0
-65 70 30 60 0
-61 -96 -66 -26 0
-61 -96 -66 -56 0
-61 -96 -26 -56 0
-61 -66 -26 -56 0
-62 -97 -67 -27 0
-62 -97 -67 -57 0
-62 -97 -27 -57 0
-62 -67 -27 -57 0
-63 -98 -68 -28 0
-63 -98 -68 -58 0
-63 -98 -28 -58 0
-63 -68 -28 -58 0
-64 -99 -69 -29 0
-64 -99 -69 -59 0
-64 -99 -29 -59 0
-64 -69 -29 -59 0
-65 -100 -70 -30 0
-65 -100 -70 -60 0
-65 -100 -30 -60 0
-65 -70 -30 -60 0
-66 298 0
-67 299 0
-298 299 0
-298 -67 0
-68 300 0
-299 300 0
-299 -68 0
-69 301 0
-300 301 0
-300 -69 0
-301 -70 0
-66 101 61 0
-66 101 31 0
-66 61 31 0
-67 102 62 0
-67 102 32 0
-67 62 32 0
-68 103 63 0
-68 103 33 0
-68 63 33 0
-69 104 64 0
-69 104 34 0
-69 64 34 0
-70 105 65 0
-70 105 35 0
-70 65 35 0
-66 -101 -61 -31 0
-67 -102 -62 -32 0
-68 -103 -63 -33 0
-69 -104 -64 -34 0
-70 -105 -65 -35 0
-71 302 0
-72 303 0
-302 303 0
-302 -72 0
-73 304 0
-303 304 0
-303 -73 0
-74 305 0
-304 305 0
-304 -74 0
-305 -75 0
-71 106 76 0
-71 106 36 0
-71 76 36 0
-72 107 77 0
-72 107 37 0
-72 77 37 0
-73 108 78 0
-73 108 38 0
-73 78 38 0
-74 109 79 0
-74 109 39 0
-74 79 39 0
-75 110 80 0
-75 110 40 0
-75 80 40 0
-71 -106 -76 -36 0
-72 -107 -77 -37 0
-73 -108 -78 -38 0
-74 -109 -79 -39 0
-75 -110 -80 -40 0
-76 0
-77 0
-78 0
-79 0
80 0
115 85 45 75 0
-115 -85 0
-115 -45 0
-115 -75 0
-85 -45 0
-85 -75 0
-45 -75 0
-81 306 0
-82 307 0
-306 307 0
-306 -82 0
-83 308 0
-307 308 0
-307 -83 0
-84 309 0
-308 309 0
-308 -84 0
-309 -85 0
-81 116 86 46 0
-81 116 86 76 0
-81 116 46 76 0
-81 86 46 76 0
-82 117 87 47 0
-82 117 87 77 0
-82 117 47 77 0
-82 87 47 77 0
-83 118 88 48 0
-83 118 88 78 0
-83 118 48 78 0
-83 88 48 78 0
-84 119 89 49 0
-84 119 89 79 0
-84 119 49 79 0
-84 89 49 79 0
-85 120 90 50 0
-85 120 90 80 0
-85 120 50 80 0
-85 90 50 80 0
-81 -116 -86 -46 0
-81 -116 -86 -76 0
-81 -116 -46 -76 0
-81 -86 -46 -76 0
-82 -117 -87 -47 0
-82 -117 -87 -77 0
-82 -117 -47 -77 0
-82 -87 -47 -77 0
-83 -118 -88 -48 0
-83 -118 -88 -78 0
-83 -118 -48 -78 0
-83 -88 -48 -78 0
-84 -119 -89 -49 0
-84 -119 -89 -79 0
-84 -119 -49 -79 0
-84 -89 -49 -79 0
-85 -120 -90 -50 0
-85 -120 -90 -80 0
-85 -120 -50 -80 0
-85 -90 -50 -80 0
-86 310 0
-87 311 0
-310 311 0
-310 -87 0
-88 312 0
-311 312 0
-311 -88 0
-89 313 0
-312 313 0
-312 -89 0
-313 -90 0
-86 121 91 51 0
-86 121 91 81 0
-86 121 51 81 0
-86 91 51 81 0
-87 122 92 52 0
-87 122 92 82 0
-87 122 52 82 0
-87 92 52 82 0
-88 123 93 53 0
-88 123 93 83 0
-88 123 53 83 0
-88 93 53 83 0
-89 124 94 54 0
-89 124 94 84 0
-89 124 54 84 0
-89 94 54 84 0
-90 125 95 55 0
-90 125 95 85 0
-90 125 55 85 0
-90 95 55 85 0
-86 -121 -91 -51 0
-86 -121 -91 -81 0
-86 -121 -51 -81 0
-86 -91 -51 -81 0
-87 -122 -92 -52 0
-87 -122 -92 -82 0
-87 -122 -52 -82 0
-87 -92 -52 -82 0
-88 -123 -93 -53 0
-88 -123 -93 -83 0
-88 -123 -53 -83 0
-88 -93 -53 -83 0
-89 -124 -94 -54 0
-89 -124 -94 -84 0
-89 -124 -54 -84 0
-89 -94 -54 -84 0
-90 -125 -95 -55 0
-90 -125 -95 -85 0
-90 -125 -55 -85 0
-90 -95 -55 -85 0
-91 314 0
-92 315 0
-314 315 0
-314 -92 0
-93 316 0
-315 316 0
-315 -93 0
-94 317 0
-316 317 0
-316 -94 0
-317 -95 0
-91 126 96 56 0
-91 126 96 86 0
-91 126 56 86 0
-91 96 56 86 0
-92 127 97 57 0
-92 127 97 87 0
-92 127 57 87 0
-92 97 57 87 0
-93 128 98 58 0
-93 128 98 88 0
-93 128 58 88 0
-93 98 58 88 0
-94 129 99 59 0
-94 129 99 89 0
-94 129 59 89 0
-94 99 59 89 0
-95 130 100 60 0
-95 130 100 90 0
-95 130 60 90 0
-95 100 60 90 0
-91 -126 -96 -56 0
-91 -126 -96 -86 0
-91 -126 -56 -86 0
-91 -96 -56 -86 0
-92 -127 -97 -57 0
-92 -127 -97 -87 0
-92 -127 -57 -87 0
-92 -97 -57 -87 0
-93 -128 -98 -58 0
-93 -128 -98 -88 0
-93 -128 -58 -88 0
-93 -98 -58 -88 0
-94 -129 -99 -59 0
-94 -129 -99 -89 0
-94 -129 -59 -89 0
-94 -99 -59 -89 0
-95 -130 -100 -60 0
-95 -130 -100 -90 0
-95 -130 -60 -90 0
-95 -100 -60 -90 0
-96 318 0
-97 319 0
-318 319 0
-318 -97 0
-98 320 0
-319 320 0
-319 -98 0
-99 321 0
-320 321 0
-320 -99 0
-321 -100 0
-96 131 101 61 0
-96 131 101 91 0
-96 131 61 91 0
-96 101 61 91 0
-97 132 102 62 0
-97 132 102 92 0
-97 132 62 92 0
-97 102 62 92 0
-98 133 103 63 0
-98 133 103 93 0
-98 133 63 93 0
-98 103 63 93 0
-99 134 104 64 0
-99 134 104 94 0
-99 134 64 94 0
-99 104 64 94 0
-100 135 105 65 0
-100 135 105 95 0
-100 135 65 95 0
-100 105 65 95 0
-96 -131 -101 -61 0
-96 -131 -101 -91 0
-96 -131 -61 -91 0
-96 -101 -61 -91 0
-97 -132 -102 -62 0
-97 -132 -102 -92 0
-97 -132 -62 -92 0
-97 -102 -62 -92 0
-98 -133 -103 -63 0
-98 -133 -103 -93 0
-98 -133 -63 -93 0
-98 -103 -63 -93 0
-99 -134 -104 -64 0
-99 -134 -104 -94 0
-99 -134 -64 -94 0
-99 -104 -64 -94 0
-100 -135 -105 -65 0
-100 -135 -105 -95 0
-100 -135 -65 -95 0
-100 -105 -65 -95 0
-101 322 0
-102 323 0
-322 323 0
-322 -102 0
-103 324 0
-323 324 0
-323 -103 0
-104 325 0
-324 325 0
-324 -104 0
-325 -105 0
-101 136 96 0
-101 136 66 0
-101 96 66 0
-102 137 97 0
-102 137 67 0
-102 97 67 0
-103 138 98 0
-103 138 68 0
-103 98 68 0
-104 139 99 0
-104 139 69 0
-104 99 69 0
-105 140 100 0
-105 140 70 0
-105 100 70 0
-101 -136 -96 -66 0
-102 -137 -97 -67 0
-103 -138 -98 -68 0
-104 -139 -99 -69 0
-105 -140 -100 -70 0
-106 326 0
-107 327 0
-326 327 0
-326 -107 0
-108 328 0
-327 328 0
-327 -108 0
-109 329 0
-328 329 0
-328 -109 0
-329 -110 0
-106 141 111 0
-106 141 71 0
-106 111 71 0
-107 142 112 0
-107 142 72 0
-107 112 72 0
-108 143 113 0
-108 143 73 0
-108 113 73 0
-109 144 114 0
-109 144 74 0
-109 114 74 0
-110 145 115 0
-110 145 75 0
-110 115 75 0
-106 -141 -111 -71 0
-107 -142 -112 -72 0
-108 -143 -113 -73 0
-109 -144 -114 -74 0
-110 -145 -115 -75 0
-111 330 0
-112 331 0
-330 331 0
-330 -112 0
-113 332 0
-331 332 0
-331 -113 0
-114 333 0
-332 333 0
-332 -114 0
-333 -115 0
-111 146 116 76 0
-111 146 116 106 0
-111 146 76 106 0
-111 116 76 106 0
-112 147 117 77 0
-112 147 117 107 0
-112 147 77 107 0
-112 117 77 107 0
-113 148 118 78 0
-113 148 118 108 0
-113 148 78 108 0
-113 118 78 108 0
-114 149 119 79 0
-114 149 119 109 0
-114 149 79 109 0
-114 119 79 109 0
-115 150 120 80 0
-115 150 120 110 0
-115 150 80 110 0
-115 120 80 110 0
-111 -146 -116 -76 0
-111 -146 -116 -106 0
-111 -146 -76 -106 0
-111 -116 -76 -106 0
-112 -147 -117 -77 0
-112 -147 -117 -107 0
-112 -147 -77 -107 0
-112 -117 -77 -107 0
-113 -148 -118 -78 0
-113 -148 -118 -108 0
-113 -148 -78 -108 0
-113 -118 -78 -108 0
-114 -149 -119 -79 0
-114 -149 -119 -109 0
-114 -149 -79 -109 0
-114 -119 -79 -109 0
-115 -150 -120 -80 0
-115 -150 -120 -110 0
-115 -150 -80 -110 0
-115 -120 -80 -110 0
-116 334 0
-117 335 0
-334 335 0
-334 -117 0
-118 336 0
-335 336 0
-335 -118 0
-119 337 0
-336 337 0
-336 -119 0
-337 -120 0
-116 151 121 81 0
-116 151 121 111 0
-116 151 81 111 0
-116 121 81 111 0
-117 152 122 82 0
-117 152 122 112 0
-117 152 82 112 0
-117 122 82 112 0
-118 153 123 83 0
-118 153 123 113 0
-118 153 83 113 0
-118 123 83 113 0
-119 154 124 84 0
-119 154 124 114 0
-119 154 84 114 0
-119 124 84 114 0
-120 155 125 85 0
-120 155 125 115 0
-120 155 85 115 0
-120 125 85 115 0
-116 -151 -121 -81 0
-116 -151 -121 -111 0
-116 -151 -81 -111 0
-116 -121 -81 -111 0
-117 -152 -122 -82 0
-117 -152 -122 -112 0
-117 -152 -82 -112 0
-117 -122 -82 -112 0
-118 -153 -123 -83 0
-118 -153 -123 -113 0
-118 -153 -83 -113 0
-118 -123 -83 -113 0
-119 -154 -124 -84 0
-119 -154 -124 -114 0
-119 -154 -84 -114 0
-119 -124 -84 -114 0
-120 -155 -125 -85 0
-120 -155 -125 -115 0
-120 -155 -85 -115 0
-120 -125 -85 -115 0
-121 0
-122 0
-123 0
-125 0
124 0
159 129 89 119 0
-159 -129 0
-159 -89 0
-159 -119 0
-129 -89 0
-129 -119 0
-89 -119 0
-126 338 0
-127 339 0
-338 339 0
-338 -127 0
-128 340 0
-339 340 0
-339 -128 0
-129 341 0
-340 341 0
-340 -129 0
-341 -130 0
-126 161 131 91 0
-126 161 131 121 0
-126 161 91 121 0
-126 131 91 121 0
-127 162 132 92 0
-127 162 132 122 0
-127 162 92 122 0
-127 132 92 122 0
-128 163 133 93 0
-128 163 133 123 0
-128 163 93 123 0
-128 133 93 123 0
-129 164 134 94 0
-129 164 134 124 0
-129 164 94 124 0
-129 134 94 124 0
-130 165 135 95 0
-130 165 135 125 0
-130 165 95 125 0
-130 135 95 125 0
-126 -161 -131 -91 0
-126 -161 -131 -121 0
-126 -161 -91 -121 0
-126 -131 -91 -121 0
-127 -162 -132 -92 0
-127 -162 -132 -122 0
-127 -162 -92 -122 0
-127 -132 -92 -122 0
-128 -163 -133 -93 0
-128 -163 -133 -123 0
-128 -163 -93 -123 0
-128 -133 -93 -123 0
-129 -164 -134 -94 0
-129 -164 -134 -124 0
-129 -164 -94 -124 0
-129 -134 -94 -124 0
-130 -165 -135 -95 0
-130 -165 -135 -125 0
-130 -165 -95 -125 0
-130 -135 -95 -125 0
-131 0
-132 0
-133 0
-134 0
135 0
170 140 100 130 0
-170 -140 0
-170 -100 0
-170 -130 0
-140 -100 0
-140 -130 0
-100 -130 0
-136 342 0
-137 343 0
-342 343 0
-342 -137 0
-138 344 0
-343 344 0
-343 -138 0
-139 345 0
-344 345 0
-344 -139 0
-345 -140 0
-136 171 131 0
-136 171 101 0
-136 131 101 0
-137 172 132 0
-137 172 102 0
-137 132 102 0
-138 173 133 0
-138 173 103 0
-138 133 103 0
-139 174 134 0
-139 174 104 0
-139 134 104 0
-140 175 135 0
-140 175 105 0
-140 135 105 0
-136 -171 -131 -101 0
-137 -172 -132 -102 0
-138 -173 -133 -103 0
-139 -174 -134 -104 0
-140 -175 -135 -105 0
-141 346 0
-142 347 0
-346 347 0
-346 -142 0
-143 348 0
-347 348 0
-347 -143 0
-144 349 0
-348 349 0
-348 -144 0
-349 -145 0
-141 176 146 0
-141 176 106 0
-141 146 106 0
-142 177 147 0
-142 177 107 0
-142 147 107 0
-143 178 148 0
-143 178 108 0
-143 148 108 0
-144 179 149 0
-144 179 109 0
-144 149 109 0
-145 180 150 0
-145 180 110 0
-145 150 110 0
-141 -176 -146 -106 0
-142 -177 -147 -107 0
-143 -178 -148 -108 0
-144 -179 -149 -109 0
-145 -180 -150 -110 0
-146 350 0
-147 351 0
-350 351 0
-350 -147 0
-148 352 0
-351 352 0
-351 -148 0
-149 353 0
-352 353 0
-352 -149 0
-353 -150 0
-146 181 151 111 0
-146 181 151 141 0
-146 181 111 141 0
-146 151 111 141 0
-147 182 152 112 0
-147 182 152 142 0
-147 182 112 142 0
-147 152 112 142 0
-148 183 153 113 0
-148 183 153 143 0
-148 183 113 143 0
-148 153 113 143 0
-149 184 154 114 0
-149 184 154 144 0
-149 184 114 144 0
-149 154 114 144 0
-150 185 155 115 0
-150 185 155 145 0
-150 185 115 145 0
-150 155 115 145 0
-146 -181 -151 -111 0
-146 -181 -151 -141 0
-146 -181 -111 -141 0
-146 -151 -111 -141 0
-147 -182 -152 -112 0
-147 -182 -152 -142 0
-147 -182 -112 -142 0
-147 -152 -112 -142 0
-148 -183 -153 -113 0
-148 -183 -153 -143 0
-148 -183 -113 -143 0
-148 -153 -113 -143 0
-149 -184 -154 -114 0
-149 -184 -154 -144 0
-149 -184 -114 -144 0
-149 -154 -114 -144 0
-150 -185 -155 -115 0
-150 -185 -155 -145 0
-150 -185 -115 -145 0
-150 -155 -115 -145 0
-151 0
-152 0
-153 0
-155 0
154 0
189 159 119 149 0
-189 -159 0
-189 -119 0
-189 -149 0
-159 -119 0
-159 -149 0
-119 -149 0
-156 354 0
-157 355 0
-354 355 0
-354 -157 0
-158 356 0
-355 356 0
-355 -158 0
-159 357 0
-356 357 0
-356 -159 0
-357 -160 0
-156 191 161 121 0
-156 191 161 151 0
-156 191 121 151 0
-156 161 121 151 0
-157 192 162 122 0
-157 192 162 152 0
-157 192 122 152 0
-157 162 122 152 0
-158 193 163 123 0
-158 193 163 153 0
-158 193 123 153 0
-158 163 123 153 0
-159 194 164 124 0
-159 194 164 154 0
-159 194 124 154 0
-159 164 124 154 0
-160 195 165 125 0
-160 195 165 155 0
-160 195 125 155 0
-160 165 125 155 0
-156 -191 -161 -121 0
-156 -191 -161 -151 0
-156 -191 -121 -151 0
-156 -161 -121 -151 0
-157 -192 -162 -122 0
-157 -192 -162 -152 0
-157 -192 -122 -152 0
-157 -162 -122 -152 0
-158 -193 -163 -123 0
-158 -193 -163 -153 0
-158 -193 -123 -153 0
-158 -163 -123 -153 0
-159 -194 -164 -124 0
-159 -194 -164 -154 0
-159 -194 -124 -154 0
-159 -164 -124 -154 0
-160 -195 -165 -125 0
-160 -195 -165 -155 0
-160 -195 -125 -155 0
-160 -165 -125 -155 0
-161 358 0
-162 359 0
-358 359 0
-358 -162 0
-163 360 0
-359 360 0
-359 -163 0
-164 361 0
-360 361 0
-360 -164 0
-361 -165 0
-161 196 166 126 0
-161 196 166 156 0
-161 196 126 156 0
-161 166 126 156 0
-162 197 167 127 0
-162 197 167 157 0
-162 197 127 157 0
-162 167 127 157 0
-163 198 168 128 0
-163 198 168 158 0
-163 198 128 158 0
-163 168 128 158 0
-164 199 169 129 0
-164 199 169 159 0
-164 199 129 159 0
-164 169 129 159 0
-165 200 170 130 0
-165 200 170 160 0
-165 200 130 160 0
-165 170 130 160 0
-161 -196 -166 -126 0
-161 -196 -166 -156 0
-161 -196 -126 -156 0
-161 -166 -126 -156 0
-162 -197 -167 -127 0
-162 -197 -167 -157 0
-162 -197 -127 -157 0
-162 -167 -127 -157 0
-163 -198 -168 -128 0
-163 -198 -168 -158 0
-163 -198 -128 -158 0
-163 -168 -128 -158 0
-164 -199 -169 -129 0
-164 -199 -169 -159 0
-164 -199 -129 -159 0
-164 -169 -129 -159 0
-165 -200 -170 -130 0
-165 -200 -170 -160 0
-165 -200 -130 -160 0
-165 -170 -130 -160 0
-166 0
-168 0
-169 0
-170 0
167 0
202 172 132 162 0
-202 -172 0
-202 -132 0
-202 -162 0
-172 -132 0
-172 -162 0
-132 -162 0
-171 362 0
-172 363 0
-362 363 0
-362 -172 0
-173 364 0
-363 364 0
-363 -173 0
-174 365 0
-364 365 0
-364 -174 0
-365 -175 0
-171 206 166 0
-171 206 136 0
-171 166 136 0
-172 207 167 0
-172 207 137 0
-172 167 137 0
-173 208 168 0
-173 208 138 0
-173 168 138 0
-174 209 169 0
-174 209 139 0
-174 169 139 0
-175 210 170 0
-175 210 140 0
-175 170 140 0
-171 -206 -166 -136 0
-172 -207 -167 -137 0
-173 -208 -168 -138 0
-174 -209 -169 -139 0
-175 -210 -170 -140 0
-176 366 0
-177 367 0
-366 367 0
-366 -177 0
-178 368 0
-367 368 0
-367 -178 0
-179 369 0
-368 369 0
-368 -179 0
-369 -180 0
-176 211 181 0
-176 211 141 0
-176 181 141 0
-177 212 182 0
-177 212 142 0
-177 182 142 0
-178 213 183 0
-178 213 143 0
-178 183 143 0
-179 214 184 0
-179 214 144 0
-179 184 144 0
-180 215 185 0
-180 215 145 0
-180 185 145 0
-176 -211 -181 -141 0
-177 -212 -182 -142 0
-178 -213 -183 -143 0
-179 -214 -184 -144 0
-180 -215 -185 -145 0
-181 370 0
-182 371 0
-370 371 0
-370 -182 0
-183 372 0
-371 372 0
-371 -183 0
-184 373 0
-372 373 0
-372 -184 0
-373 -185 0
-181 216 186 146 0
-181 216 186 176 0
-181 216 146 176 0
-181 186 146 176 0
-182 217 187 147 0
-182 217 187 177 0
-182 217 147 177 0
-182 187 147 177 0
-183 218 188 148 0
-183 218 188 178 0
-183 218 148 178 0
-183 188 148 178 0
-184 219 189 149 0
-184 219 189 179 0
-184 219 149 179 0
-184 189 149 179 0
-185 220 190 150 0
-185 220 190 180 0
-185 220 150 180 0
-185 190 150 180 0
-181 -216 -186 -146 0
-181 -216 -186 -176 0
-181 -216 -146 -176 0
-181 -186 -146 -176 0
-182 -217 -187 -147 0
-182 -217 -187 -177 0
-182 -217 -147 -177 0
-182 -187 -147 -177 0
-183 -218 -188 -148 0
-183 -218 -188 -178 0
-183 -218 -148 -178 0
-183 -188 -148 -178 0
-184 -219 -189 -149 0
-184 -219 -189 -179 0
-184 -219 -149 -179 0
-184 -189 -149 -179 0
-185 -220 -190 -150 0
-185 -220 -190 -180 0
-185 -220 -150 -180 0
-185 -190 -150 -180 0
-186 374 0
-187 375 0
-374 375 0
-374 -187 0
-188 376 0
-375 376 0
-375 -188 0
-189 377 0
-376 377 0
-376 -189 0
-377 -190 0
-186 221 191 151 0
-186 221 191 181 0
-186 221 151 181 0
-186 191 151 181 0
-187 222 192 152 0
-187 222 192 182 0
-187 222 152 182 0
-187 192 152 182 0
-188 223 193 153 0
-188 223 193 183 0
-188 223 153 183 0
-188 193 153 183 0
-189 224 194 154 0
-189 224 194 184 0
-189 224 154 184 0
-189 194 154 184 0
-190 225 195 155 0
-190 225 195 185 0
-190 225 155 185 0
-190 195 155 185 0
-186 -221 -191 -151 0
-186 -221 -191 -181 0
-186 -221 -151 -181 0
-186 -191 -151 -181 0
-187 -222 -192 -152 0
-187 -222 -192 -182 0
-187 -222 -152 -182 0
-187 -192 -152 -182 0
-188 -223 -193 -153 0
-188 -223 -193 -183 0
-188 -223 -153 -183 0
-188 -193 -153 -183 0
-189 -224 -194 -154 0
-189 -224 -194 -184 0
-189 -224 -154 -184 0
-189 -194 -154 -184 0
-190 -225 -195 -155 0
-190 -225 -195 -185 0
-190 -225 -155 -185 0
-190 -195 -155 -185 0
-191 0
-192 0
-194 0
-195 0
193 0
228 198 158 188 0
-228 -198 0
-228 -158 0
-228 -188 0
-198 -158 0
-198 -188 0
-158 -188 0
-196 378 0
-197 379 0
-378 379 0
-378 -197 0
-198 380 0
-379 380 0
-379 -198 0
-199 381 0
-380 381 0
-380 -199 0
-381 -200 0
-196 231 201 161 0
-196 231 201 191 0
-196 231 161 191 0
-196 201 161 191 0
-197 232 202 162 0
-197 232 202 192 0
-197 232 162 192 0
-197 202 162 192 0
-198 233 203 163 0
-198 233 203 193 0
-198 233 163 193 0
-198 203 163 193 0
-199 234 204 164 0
-199 234 204 194 0
-199 234 164 194 0
-199 204 164 194 0
-200 235 205 165 0
-200 235 205 195 0
-200 235 165 195 0
-200 205 165 195 0
-196 -231 -201 -161 0
-196 -231 -201 -191 0
-196 -231 -161 -191 0
-196 -201 -161 -191 0
-197 -232 -202 -162 0
-197 -232 -202 -192 0
-197 -232 -162 -192 0
-197 -202 -162 -192 0
-198 -233 -203 -163 0
-198 -233 -203 -193 0
-198 -233 -163 -193 0
-198 -203 -163 -193 0
-199 -234 -204 -164 0
-199 -234 -204 -194 0
-199 -234 -164 -194 0
-199 -204 -164 -194 0
-200 -235 -205 -165 0
-200 -235 -205 -195 0
-200 -235 -165 -195 0
-200 -205 -165 -195 0
-201 0
-202 0
-204 0
-205 0
203 0
238 208 168 198 0
-238 -208 0
-238 -168 0
-238 -198 0
-208 -168 0
-208 -198 0
-168 -198 0
-206 382 0
-207 383 0
-382 383 0
-382 -207 0
-208 384 0
-383 384 0
-383 -208 0
-209 385 0
-384 385 0
-384 -209 0
-385 -210 0
-206 241 201 0
-206 241 171 0
-206 201 171 0
-207 242 202 0
-207 242 172 0
-207 202 172 0
-208 243 203 0
-208 243 173 0
-208 203 173 0
-209 244 204 0
-209 244 174 0
-209 204 174 0
-210 245 205 0
-210 245 175 0
-210 205 175 0
-206 -241 -201 -171 0
-207 -242 -202 -172 0
-208 -243 -203 -173 0
-209 -244 -204 -174 0
-210 -245 -205 -175 0
-211 386 0
-212 387 0
-386 387 0
-386 -212 0
-213 388 0
-387 388 0
-387 -213 0
-214 389 0
-388 389 0
-388 -214 0
-389 -215 0
-211 176 0
-211 216 0
-212 177 0
-212 217 0
-213 178 0
-213 218 0
-214 179 0
-214 219 0
-215 180 0
-215 220 0
-217 0
-218 0
-219 0
-220 0
216 0
181 221 211 0
-181 -221 0
-181 -211 0
-221 -211 0
-221 0
-223 0
-224 0
-225 0
222 0
187 227 217 0
-187 -227 0
-187 -217 0
-227 -217 0
-227 0
-228 0
-229 0
-230 0
226 0
191 231 221 0
-191 -231 0
-191 -221 0
-231 -221 0
-231 390 0
-232 391 0
-390 391 0
-390 -232 0
-233 392 0
-391 392 0
-391 -233 0
-234 393 0
-392 393 0
-392 -234 0
-393 -235 0
-231 196 236 0
-231 196 226 0
-231 236 226 0
-232 197 237 0
-232 197 227 0
-232 237 227 0
-233 198 238 0
-233 198 228 0
-233 238 228 0
-234 199 239 0
-234 199 229 0
-234 239 229 0
-235 200 240 0
-235 200 230 0
-235 240 230 0
-231 -196 -236 -226 0
-232 -197 -237 -227 0
-233 -198 -238 -228 0
-234 -199 -239 -229 0
-235 -200 -240 -230 0
-236 394 0
-237 395 0
-394 395 0
-394 -237 0
-238 396 0
-395 396 0
-395 -238 0
-239 397 0
-396 397 0
-396 -239 0
-397 -240 0
-236 201 241 0
-236 201 231 0
-236 241 231 0
-237 202 242 0
-237 202 232 0
-237 242 232 0
-238 203 243 0
-238 203 233 0
-238 243 233 0
-239 204 244 0
-239 204 234 0
-239 244 234 0
-240 205 245 0
-240 205 235 0
-240 245 235 0
-236 -201 -241 -231 0
-237 -202 -242 -232 0
-238 -203 -243 -233 0
-239 -204 -244 -234 0
-240 -205 -245 -235 0
-241 398 0
-242 399 0
-398 399 0
-398 -242 0
-243 400 0
-399 400 0
-399 -243 0
-244 401 0
-400 401 0
-400 -244 0
-401 -245 0
-241 206 0
-241 236 0
-242 207 0
-242 237 0
-243 208 0
-243 238 0
-244 209 0
-244 239 0
-245 210 0
-245 240 0
11 46 81 116 186 0
177 182 187 197 207 0
17 52 87 157 0
22 57 92 127 162 197 232 0
23 58 93 128 163 198 233 0
15 50 85 120 190 0
20 55 90 160 0
25 60 95 130 165 200 235 0